NAME : mtspf.pid5699.gtsp.134217874.tour
COMMENT : Length = 134217874
COMMENT : Found by LKH [Keld Helsgaun] Tue Mar  4 13:28:51 2025
TYPE : TOUR
DIMENSION : 85
TOUR_SECTION
1
60
61
58
59
15
16
17
14
4
36
37
34
35
29
26
27
28
81
78
79
80
9
6
7
8
20
21
18
19
63
64
65
62
68
69
66
67
5
13
10
11
12
3
54
55
56
57
85
82
83
84
70
71
72
73
2
44
45
42
43
39
40
41
38
32
33
30
31
52
53
50
51
75
76
77
74
47
48
49
46
24
25
22
23
-1
EOF
